c Random generated cnf formula, satisfiable: false
p cnf 10 50
4 -2 -5 0
6 3 7 0
2 -9 -7 0
9 -6 -7 0
-8 -1 -7 0
2 -9 -1 0
-2 -8 6 0
-10 -5 -9 0
-1 3 5 0
-3 -9 2 0
7 1 5 0
-4 1 5 0
-10 6 1 0
5 -2 4 0
7 10 -6 0
-10 9 -8 0
-1 10 9 0
-9 8 6 0
-10 -7 9 0
10 -9 5 0
7 -3 4 0
-8 9 10 0
-2 -1 -3 0
3 4 8 0
-9 -1 -7 0
3 10 6 0
-2 6 -10 0
10 -1 -3 0
4 -1 9 0
9 -10 6 0
3 -1 9 0
6 -8 -5 0
-8 -9 -2 0
-3 -4 7 0
-2 1 -7 0
8 10 -4 0
4 -1 7 0
-3 10 5 0
8 -3 4 0
-2 -7 3 0
1 -5 -7 0
-2 6 -10 0
-3 6 4 0
-4 -8 5 0
5 -8 6 0
6 9 -3 0
-5 -7 -10 0
-8 10 1 0
7 10 9 0
7 -4 -5 0
